81200077087032340335011,8,1,2,01,15,1,2,03,7,1,2,05,6,1,2,02,2,1,2,012,12,1,2,05,10,1,2,09,10,1,2,015,5,1,2,06,8,1,2,03,1,1,2,011,14,1,2,03,9,1,2,011,5,1,2,014,6,1,2,010,9,1,2,010,14,1,2,04,14,1,2,04,4,1,2,015,10,1,2,04,11,1,2,06,6,1,2,02,14,1,2,04,15,1,2,014,2,1,2,02,8,1,2,08,6,1,2,013,2,1,2,014,6,1,2,06,11,1,2,011,10,1,2,06,9,1,2,06,3,1,2,03,10,1,2,08,11,1,2,014,15,1,2,06,1,1,2,013,11,1,2,09,1,1,2,014,13,1,2,04,12,1,2,012,9,1,2,03,5,1,2,010,1,1,2,05,10,1,2,07,15,1,2,06,5,1,2,08,7,1,2,010,14,1,2,09,10,1,2,0